3873.79
0 43 38 10 3 9 6 1 2 5 13 12 11 4 8 15 7 42 18 21 20 23 37 34 51 58 0
0 17 16 14 24 19 63 57 61 0
0 76 85 22 28 26 73 67 29 25 27 0
0 35 33 31 32 30 39 36 0
0 68 44 40 47 49 48 45 41 46 80 52 0
0 77 50 69 55 60 56 54 53 0
0 94 75 91 78 71 70 74 66 99 98 62 64 59 0
0 72 65 100 81 0
0 86 88 82 84 79 83 87 0
0 95 93 90 89 92 0
0 96 97 0
